benchmarks/bfuzz0/1252980601487323671102782585281623352.smt2
(set-logic QF_FP)
(declare-const x0 (_ FloatingPoint 11 53))
(declare-const x1 (_ FloatingPoint 11 53))
(declare-const x2 (_ FloatingPoint 11 53))
(declare-const x3 (_ FloatingPoint 11 53))
(declare-const x4 (_ FloatingPoint 11 53))
(declare-const x5 (_ FloatingPoint 11 53))
(declare-const x6 (_ FloatingPoint 11 53))
(declare-const x7 (_ FloatingPoint 11 53))
(declare-const x8 (_ FloatingPoint 11 53))
(assert (fp.geq (fp.div RNE (fp.div RNE x5 x6) (fp.add RNE x1 x6)) (fp.add RNE (fp.mul RNE x4 x4) (fp.mul RNE x5 x1))))
(check-sat)
