db/data/1252980601487323671102782585281623352.z3.out
sat
-------------------
1924.166899907
